0 24 25 41 5 42 24 23 15 45 19 48 18 48 7
24 0 38 24 41 17 26 37 25 4 26 39 12 47 44
25 38 0 33 6 31 10 33 12 13 46 5 27 30 9
41 24 33 0 8 45 25 6 46 6 7 6 40 46 24
5 41 6 8 0 35 34 12 6 45 21 48 4 17 20
42 17 31 45 35 0 35 41 20 16 40 16 11 12 14
24 26 10 25 34 35 0 11 25 49 15 20 22 36 17
23 37 33 6 12 41 11 0 35 18 37 31 1 24 28
15 25 12 46 6 20 25 35 0 9 2 31 26 16 9
45 4 13 6 45 16 49 18 9 0 46 19 9 35 41
19 26 46 7 21 40 15 37 2 46 0 10 39 12 25
48 39 5 6 48 16 20 31 31 19 10 0 17 41 40
18 12 27 40 4 11 22 1 26 9 39 17 0 7 8
48 47 30 46 17 12 36 24 16 35 12 41 7 0 43
7 44 9 24 20 14 17 28 9 41 25 40 8 43 0
